1 12
2 13
3 8
4 14
5 11
6 1
7 4
8 10
9 11
10 6
11 4
12 1
13 12
14 6
15 4
16 1
17 9
18 19
19 9
20 4
21 1
22 1
23 12
24 3
25 4
26 19
27 14
28 8
29 9
30 13
31 6
32 3
33 11
34 19
35 12
36 3
37 4
38 2
39 14
40 18
41 7
42 4
43 3
44 8
45 1
46 20
47 14
48 9
49 8
50 1
51 20
52 4
53 12
54 4
55 10
56 13
57 20
58 6
59 11
60 2
61 5
62 2
63 4
64 12
65 2
66 2
67 2
68 4
69 1
70 2
71 12
72 2
73 4
74 12
75 1
76 2
77 1
78 1
79 3
80 4
81 2
82 5
83 1
84 10
85 16
86 10
87 6
88 20
89 16
90 20
91 14
92 7
93 18
94 6
95 1
96 12
97 10
98 16
99 1
100 21
101 20
102 17
103 4
104 11
105 3
106 12
107 4
108 2
109 12
110 1
111 20
112 20
113 11
114 11
115 9
116 7
117 19
118 1
119 11
120 3
121 13
122 1
123 13
124 2
125 8
126 8
127 4
128 20
129 1
130 2
131 2
132 1
133 2
134 3
135 3
136 12
137 3
138 2
139 1
140 19
141 7
142 13
143 8
144 11
145 12
146 10
147 21
148 18
149 9
150 16
151 1
152 7
153 19
154 8
155 14
156 3
157 5
158 1
159 6
160 1
161 1
162 4
163 3
164 8
165 3
166 16
167 4
168 9
169 3
170 5
171 16
172 8
173 9
174 20
175 15
176 20
177 8
178 1
179 11
180 9
181 6
182 21
183 10
184 4
185 20
186 19
187 19
188 7
189 10
190 1
191 1
192 11
193 12
194 14
195 4
196 5
197 1
198 1
199 2
200 5
201 6
202 2
203 3
204 1
205 1
206 4
207 15
208 13
209 7
210 17
211 17
212 17
213 14
214 10
215 19
216 1
217 13
218 8
219 1
220 3
221 5
222 19
223 3
224 11
225 20
226 11
227 9
228 12
229 13
230 9
231 3
232 3
233 1
234 2
235 2
236 2
237 3
238 16
239 8
240 1
241 2
242 4
243 21
244 21
245 6
246 2
247 4
248 6
249 5
250 5
251 4
252 5
253 4
254 5
255 15
256 5
257 15
258 15
259 16
260 16
261 10
262 3
263 11
264 19
265 6
266 20
267 13
268 8
269 3
270 8
271 2
272 6
273 11
274 19
275 10
276 4
277 1
278 11
279 1
280 2
281 3
282 4
283 4
284 1
285 1
286 11
287 11
288 10
289 12
290 3
291 14
292 12
293 12
294 14
295 18
296 13
297 19
298 12
299 20
300 1
301 8
302 17
303 14
304 2
305 20
306 3
307 2
308 4
309 3
310 2
311 1
312 1
313 1
314 2
315 19
316 14
317 19
318 10
319 10
320 21
321 20
322 21
323 14
324 13
325 20
326 20
327 19
328 6
329 1
330 1
331 8
332 12
333 14
334 15
335 2
336 21
337 18
338 10
339 21
340 1
341 16
342 17
343 10
344 6
345 1
346 2
347 3
348 4
349 1
350 1
351 3
352 9
353 7
354 7
355 1
356 17
357 17
358 5
359 7
360 1
361 20
362 6
363 4
364 1
365 13
366 19
367 10
368 13
369 1
370 19
371 11
372 2
373 2
374 4
375 2
376 3
377 3
378 3
379 6
380 12
381 1
382 8
383 11
384 2
385 15
386 15
387 14
388 15
389 4
390 6
391 3
392 1
393 2
394 1
395 1
396 2
397 2
398 2
399 2
400 11
401 3
402 1
403 1
404 19
405 11
406 8
407 4
408 1
409 4
410 12
411 1
412 2
413 8
414 7
415 10
416 7
417 1
418 9
419 7
420 11
421 8
422 5
423 4
424 10
425 1
426 3
427 2
428 1
429 4
430 10
431 9
432 7
433 11
434 14
435 3
436 14
437 8
438 19
439 19
440 1
441 20
442 10
443 1
444 7
445 11
446 9
447 4
448 12
449 14
450 7
451 1
452 13
453 16
454 19
455 12
456 4
457 5
458 1
459 3
460 4
461 14
